benchmarks_vrp/CMT5/tsp_classic/CMT5_9.vrp
NAME: CMT5_9
TYPE: CVRP
COMMENT: 1291.29 - Cluster Nr.9
DIMENSION: 11
CAPACITY: 200
EDGE_WEIGHT_TYPE: EUC_2D
NODE_COORD_TYPE: TWOD_COORDS
NODE_COORD_SECTION: 
3 30 60
9 30 50
2 31 52
6 24 58
7 21 47
11 30 60
8 25 55
10 21 45
1 35 35
5 26 52
4 26 59
DEPOT_SECTION: 
1
-1
DEMAND_SECTION: 
4 29
11 16
5 9
1 0
3 16
10 11
9 33
6 19
8 17
7 15
2 27
EOF
