benchmarks_vrp/CMT5/tsp_classic/CMT5_9.tour
NAME: CMT5_9 solution
TYPE: TOUR
TOUR_SECTION:
1 9 2 3 11 4 6 8 5 7 10 -1
-1
EOF